179
0 1 0
1 2 0
2 3 0
3 3 1
4 4 0
5 4 1
6 4 2
7 4 3
8 5 2
9 5 3
10 5 4
11 6 0
12 6 2
13 6 3
14 6 5
15 7 0
16 7 1
17 7 2
18 7 3
19 7 5
20 7 6
21 8 0
22 8 3
23 8 4
24 8 6
25 8 7
26 9 2
27 9 5
28 10 0
29 10 1
30 10 2
31 10 3
32 10 5
33 10 6
34 10 8
35 10 9
36 11 0
37 11 1
38 11 2
39 11 3
40 11 5
41 11 6
42 11 9
43 11 10
44 12 2
45 12 3
46 12 4
47 12 5
48 12 7
49 12 8
50 12 10
51 12 11
52 13 1
53 13 4
54 13 5
55 13 6
56 13 7
57 13 9
58 13 10
59 13 11
60 13 12
61 14 3
62 14 5
63 14 6
64 14 8
65 14 9
66 14 10
67 14 12
68 14 13
69 15 0
70 15 2
71 15 3
72 15 4
73 15 5
74 15 6
75 15 8
76 15 9
77 15 10
78 15 13
79 15 14
80 16 0
81 16 1
82 16 3
83 16 5
84 16 7
85 16 9
86 16 12
87 17 0
88 17 1
89 17 5
90 17 6
91 17 8
92 17 10
93 17 12
94 17 13
95 17 14
96 17 15
97 18 1
98 18 3
99 18 4
100 18 6
101 18 9
102 18 10
103 18 16
104 19 0
105 19 1
106 19 2
107 19 3
108 19 10
109 19 12
110 19 14
111 19 15
112 19 17
113 19 18
114 20 0
115 20 2
116 20 3
117 20 4
118 20 5
119 20 7
120 20 8
121 20 10
122 20 11
123 20 12
124 20 13
125 20 14
126 20 15
127 21 0
128 21 1
129 21 2
130 21 3
131 21 4
132 21 6
133 21 9
134 21 10
135 21 11
136 21 13
137 21 14
138 21 16
139 21 19
140 21 20
141 22 1
142 22 3
143 22 5
144 22 7
145 22 8
146 22 10
147 22 11
148 22 14
149 22 15
150 22 16
151 22 18
152 22 19
153 23 0
154 23 1
155 23 4
156 23 6
157 23 7
158 23 8
159 23 9
160 23 16
161 23 17
162 23 19
163 23 20
164 23 21
165 23 22
166 24 1
167 24 3
168 24 4
169 24 6
170 24 7
171 24 9
172 24 11
173 24 17
174 24 18
175 24 20
176 24 21
177 24 22
178 24 23
